Version identifier: 22.1.1.0 | 2022-11-28 | 9160aff4d
CPXPARAM_ClockType                               1
CPXPARAM_Read_DataCheck                          1
CPXPARAM_Threads                                 1
CPXPARAM_TimeLimit                               7200
CPXPARAM_MIP_Tolerances_AbsMIPGap                0
CPXPARAM_MIP_Tolerances_MIPGap                   0
CPXPARAM_MIP_Tolerances_Integrality              0
Tried aggregator 6 times.
MIP Presolve eliminated 12575 rows and 341 columns.
MIP Presolve modified 699 coefficients.
Aggregator did 1349 substitutions.
Reduced MIP has 13218 rows, 5156 columns, and 46741 nonzeros.
Reduced MIP has 5156 binaries, 0 generals, 0 SOSs, and 0 indicators.
Presolve time = 0.14 sec. (99.59 ticks)
Probing fixed 1688 vars, tightened 0 bounds.
Probing time = 0.06 sec. (21.54 ticks)
Cover probing fixed 0 vars, tightened 609 bounds.
Tried aggregator 5 times.
MIP Presolve eliminated 6136 rows and 1716 columns.
MIP Presolve modified 286 coefficients.
Aggregator did 422 substitutions.
Reduced MIP has 6660 rows, 3018 columns, and 22743 nonzeros.
Reduced MIP has 3018 binaries, 0 generals, 0 SOSs, and 0 indicators.
Presolve time = 0.10 sec. (59.45 ticks)
Probing fixed 8 vars, tightened 0 bounds.
Probing time = 0.02 sec. (11.26 ticks)
Cover probing fixed 0 vars, tightened 2 bounds.
Tried aggregator 2 times.
Detecting symmetries...
MIP Presolve eliminated 23 rows and 9 columns.
Aggregator did 2 substitutions.
Reduced MIP has 6635 rows, 3007 columns, and 22666 nonzeros.
Reduced MIP has 3007 binaries, 0 generals, 0 SOSs, and 0 indicators.
Presolve time = 0.05 sec. (28.13 ticks)
Probing time = 0.01 sec. (3.31 ticks)
Cover probing fixed 85 vars, tightened 84 bounds.
Clique table members: 12921.
MIP emphasis: balance optimality and feasibility.
MIP search method: dynamic search.
Parallel mode: none, using 1 thread.
Root relaxation solution time = 0.04 sec. (26.99 ticks)

        Nodes                                         Cuts/
   Node  Left     Objective  IInf  Best Integer    Best Bound    ItCnt     Gap

      0     0      591.0000   722                    591.0000      546         
      0     0      423.6667   827                  Cuts: 1758     2647         
      0     0      326.0000   901                  Cuts: 1063     3582         
      0     0      324.0000  1006                   Cuts: 581     4074         
      0     0      324.0000  1054                   Cuts: 456     4584         
      0     0      324.0000   690                    Cuts: 63     4726         
      0     0      324.0000   890                   Cuts: 378     5262         
      0     2      324.0000   338                    324.0000     5262         
Elapsed time = 4.44 sec. (3154.26 ticks, tree = 0.01 MB, solutions = 0)
     40    42      324.0000   403                    324.0000     7868         
     76    68      324.0000   557                    324.0000     9950         
    100    79      324.0000   543                    324.0000    11885         
    103    82      324.0000   458                    324.0000    13462         
    120    97      323.0000   488                    324.0000    14901         
    159   133      321.8272   541                    324.0000    17411         
    171   139      324.0000   871                    324.0000    18609         
    223   189      297.8352   527                    324.0000    20368         
    261   214      324.0000   620                    324.0000    21599         
    340   266      324.0000   979                    324.0000    25886         
Elapsed time = 10.04 sec. (7296.03 ticks, tree = 1.17 MB, solutions = 0)
    473   373      324.0000   318                    324.0000    31554         
*   505   390      integral     0      276.0000      324.0000    33275   17.39%
*   508   385      integral     0      280.0000      324.0000    33276   15.71%
    561   420      324.0000   315      280.0000      324.0000    35511   15.71%
    667   484      310.8044   575      280.0000      324.0000    40538   15.71%
*   715   391      integral     0      304.0000      324.0000    43459    6.58%
    740   406      323.9571   521      304.0000      324.0000    45307    6.58%
    801   445      324.0000  1011      304.0000      324.0000    49433    6.58%
    881   511    infeasible            304.0000      324.0000    54076    6.58%
    904   518    infeasible            304.0000      324.0000    57960    6.58%
    905   519      323.6250   798      304.0000      324.0000    62241    6.58%
    972   570      322.5000   769      304.0000      324.0000    66851    6.58%
   1005   582      324.0000   475      304.0000      324.0000    71819    6.58%
Elapsed time = 25.41 sec. (17151.05 ticks, tree = 22.63 MB, solutions = 3)
   1029   593      322.2552   736      304.0000      324.0000    76487    6.58%
   1091   630      323.0000   924      304.0000      324.0000    81670    6.58%
*  1141+  630                          308.0000      324.0000             5.19%
   1141   632      324.0000   917      308.0000      324.0000    87044    5.19%
   1161   640      323.7885   519      308.0000      324.0000    91235    5.19%
   1179   646      324.0000   767      308.0000      324.0000    95356    5.19%
   1230   679      323.7037   693      308.0000      324.0000    99893    5.19%

Performing restart 1

Repeating presolve.
Tried aggregator 3 times.
MIP Presolve eliminated 805 rows and 196 columns.
MIP Presolve modified 628 coefficients.
Aggregator did 49 substitutions.
Reduced MIP has 5781 rows, 2762 columns, and 19461 nonzeros.
Reduced MIP has 2762 binaries, 0 generals, 0 SOSs, and 0 indicators.
Presolve time = 0.03 sec. (16.08 ticks)
Tried aggregator 1 time.
Reduced MIP has 5781 rows, 2762 columns, and 19461 nonzeros.
Reduced MIP has 2762 binaries, 0 generals, 0 SOSs, and 0 indicators.
Presolve time = 0.02 sec. (12.50 ticks)
Represolve time = 0.10 sec. (50.49 ticks)
   1251     0      324.0000   900      308.0000      Cuts: 35   104129    5.19%
   1251     0      324.0000  1229      308.0000     Cuts: 288   107262    5.19%
   1251     0      324.0000   721      308.0000      Cuts: 23   107370    5.19%
   1251     0      324.0000  1070      308.0000     Cuts: 431   110344    5.19%
   1251     0      324.0000   678      308.0000      Cuts: 28   110516    5.19%
   1251     0      324.0000   851      308.0000     Cuts: 331   111193    5.19%
   1251     0      324.0000   719      308.0000      Cuts: 42   111322    5.19%
   1251     0      324.0000  1174      308.0000     Cuts: 393   113754    5.19%
*  1251+    0                          318.0000      324.0000             1.89%
*  1251+    0                          320.0000      324.0000             1.25%
   1251     0        cutoff            320.0000      324.0000   113754    1.25%
   1251     2      324.0000   656      320.0000      324.0000   113754    1.25%
   1259    10      324.0000   402      320.0000      324.0000   119146    1.25%
   1281    29      324.0000    50      320.0000      324.0000   122414    1.25%
*  1348    42      integral     0      322.0000      324.0000   125352    0.62%
   1358    38      324.0000    30      322.0000      324.0000   125889    0.62%
Elapsed time = 53.67 sec. (35279.66 ticks, tree = 0.10 MB, solutions = 7)
*  1381+    1                          324.0000      324.0000             0.00%

GUB cover cuts applied:  30
Clique cuts applied:  18
Cover cuts applied:  360
Mixed integer rounding cuts applied:  13
Zero-half cuts applied:  21
Gomory fractional cuts applied:  169

Root node processing (before b&c):
  Real time             =    4.42 sec. (3146.30 ticks)
Sequential b&c:
  Real time             =   49.81 sec. (32482.92 ticks)
                          ------------
Total (root+branch&cut) =   54.23 sec. (35629.22 ticks)
Solution is feasible.

---------------------
@@@ MIP_optimal
>>> Benchmark logistics.c.cnf k 2 OPT 324 TimeCost 57.78083324432373 TimeSolve 54.48604440689087 TimeRead 0.01927351951599121 TimeTrans 3.27551531791687
